(set-logic QF_LIRA)
(declare-fun v!39 () Int)
(declare-fun t!35 () Real)
(declare-fun t!34 () Real)
(declare-fun t!36 () Real)
(declare-fun t!37 () Real)
(declare-fun t!31 () Real)
(declare-fun t!30 () Real)
(declare-fun t!32 () Real)
(declare-fun t!33 () Real)
(declare-fun t!27 () Real)
(declare-fun t!26 () Real)
(declare-fun t!28 () Real)
(declare-fun t!29 () Real)
(declare-fun t!23 () Real)
(declare-fun t!22 () Real)
(declare-fun t!24 () Real)
(declare-fun t!25 () Real)
(declare-fun t!19 () Real)
(declare-fun t!18 () Real)
(declare-fun t!20 () Real)
(declare-fun t!21 () Real)
(declare-fun t!15 () Real)
(declare-fun t!14 () Real)
(declare-fun t!16 () Real)
(declare-fun t!17 () Real)
(declare-fun t!11 () Real)
(declare-fun t!10 () Real)
(declare-fun t!12 () Real)
(declare-fun t!13 () Real)
(declare-fun t!7 () Real)
(declare-fun t!6 () Real)
(declare-fun t!8 () Real)
(declare-fun t!9 () Real)
(declare-fun t!3 () Real)
(declare-fun t!2 () Real)
(declare-fun t!4 () Real)
(declare-fun t!5 () Real)
(declare-fun t!1 () Real)
(declare-fun t!0 () Real)
(declare-fun t!38 () Real)
(declare-fun s!38 () Real)
(declare-fun s!3 () Real)
(declare-fun s!7 () Real)
(declare-fun s!11 () Real)
(declare-fun s!15 () Real)
(declare-fun s!19 () Real)
(declare-fun s!23 () Real)
(declare-fun s!27 () Real)
(declare-fun s!31 () Real)
(declare-fun s!35 () Real)
(declare-fun rf!38 () Real)
(declare-fun v!4 () Int)
(declare-fun rf!3 () Real)
(declare-fun v!8 () Int)
(declare-fun v!12 () Int)
(declare-fun v!16 () Int)
(declare-fun v!20 () Int)
(declare-fun v!24 () Int)
(declare-fun v!28 () Int)
(declare-fun v!32 () Int)
(declare-fun v!36 () Int)
(declare-fun rf!7 () Real)
(declare-fun rf!11 () Real)
(declare-fun rf!15 () Real)
(declare-fun rf!19 () Real)
(declare-fun rf!23 () Real)
(declare-fun rf!27 () Real)
(declare-fun rf!31 () Real)
(declare-fun rf!35 () Real)
(assert (and true (< 8 v!39)))
(assert (< 0 t!35))
(assert (< 0 t!34))
(assert (< 0 t!36))
(assert (< 0 t!37))
(assert (< 0 t!31))
(assert (< 0 t!30))
(assert (< 0 t!32))
(assert (< 0 t!33))
(assert (< 0 t!27))
(assert (< 0 t!26))
(assert (< 0 t!28))
(assert (< 0 t!29))
(assert (< 0 t!23))
(assert (< 0 t!22))
(assert (< 0 t!24))
(assert (< 0 t!25))
(assert (< 0 t!19))
(assert (< 0 t!18))
(assert (< 0 t!20))
(assert (< 0 t!21))
(assert (< 0 t!15))
(assert (< 0 t!14))
(assert (< 0 t!16))
(assert (< 0 t!17))
(assert (< 0 t!11))
(assert (< 0 t!10))
(assert (< 0 t!12))
(assert (< 0 t!13))
(assert (< 0 t!7))
(assert (< 0 t!6))
(assert (< 0 t!8))
(assert (< 0 t!9))
(assert (< 0 t!3))
(assert (< 0 t!2))
(assert (< 0 t!4))
(assert (< 0 t!5))
(assert (< 0 t!1))
(assert (< 0 t!0))
(assert (< 0 t!38))
(assert (and (and (and (and (and (and (and (and (and (and (and (and (and (and (and (and (and (and (and (and (and (and (and (and (and (and (and (and (and (and (and (and (and (and (and (and (and (and true (< t!34 t!35)) (< t!35 t!36)) (< t!36 t!37)) (< t!30 t!31)) (< t!31 t!32)) (< t!32 t!33)) (< t!26 t!27)) (< t!27 t!28)) (< t!28 t!29)) (< t!22 t!23)) (< t!23 t!24)) (< t!24 t!25)) (< t!18 t!19)) (< t!19 t!20)) (< t!20 t!21)) (< t!14 t!15)) (< t!15 t!16)) (< t!16 t!17)) (< t!10 t!11)) (< t!11 t!12)) (< t!12 t!13)) (< t!6 t!7)) (< t!7 t!8)) (< t!8 t!9)) (< t!2 t!3)) (< t!3 t!4)) (< t!4 t!5)) (< t!0 t!1)) (< t!1 t!2)) (< t!2 t!6)) (< t!6 t!10)) (< t!10 t!14)) (< t!14 t!18)) (< t!18 t!22)) (< t!22 t!26)) (< t!26 t!30)) (< t!30 t!34)) (< t!34 t!38)))
(assert (< 0 s!38))
(assert (< 0 s!3))
(assert (< 0 s!7))
(assert (< 0 s!11))
(assert (< 0 s!15))
(assert (< 0 s!19))
(assert (< 0 s!23))
(assert (< 0 s!27))
(assert (< 0 s!31))
(assert (< 0 s!35))
(assert (let ((_let_0 (= 1 rf!38))) (let ((_let_1 (and true true))) (let ((_let_2 (<= t!1 t!38))) (let ((_let_3 (= 4 rf!38))) (let ((_let_4 (<= t!4 t!38))) (let ((_let_5 (= 0 rf!3))) (let ((_let_6 (<= t!0 t!3))) (let ((_let_7 (= 8 rf!3))) (let ((_let_8 (<= t!8 t!3))) (let ((_let_9 (+ v!8 1))) (let ((_let_10 (= 12 rf!3))) (let ((_let_11 (<= t!12 t!3))) (let ((_let_12 (+ v!12 1))) (let ((_let_13 (= 16 rf!3))) (let ((_let_14 (<= t!16 t!3))) (let ((_let_15 (+ v!16 1))) (let ((_let_16 (= 20 rf!3))) (let ((_let_17 (<= t!20 t!3))) (let ((_let_18 (+ v!20 1))) (let ((_let_19 (= 24 rf!3))) (let ((_let_20 (<= t!24 t!3))) (let ((_let_21 (+ v!24 1))) (let ((_let_22 (= 28 rf!3))) (let ((_let_23 (<= t!28 t!3))) (let ((_let_24 (+ v!28 1))) (let ((_let_25 (= 32 rf!3))) (let ((_let_26 (<= t!32 t!3))) (let ((_let_27 (+ v!32 1))) (let ((_let_28 (= 36 rf!3))) (let ((_let_29 (<= t!36 t!3))) (let ((_let_30 (+ v!36 1))) (let ((_let_31 (= 0 rf!7))) (let ((_let_32 (<= t!0 t!7))) (let ((_let_33 (= 8 rf!7))) (let ((_let_34 (<= t!8 t!7))) (let ((_let_35 (= 12 rf!7))) (let ((_let_36 (<= t!12 t!7))) (let ((_let_37 (= 16 rf!7))) (let ((_let_38 (<= t!16 t!7))) (let ((_let_39 (= 20 rf!7))) (let ((_let_40 (<= t!20 t!7))) (let ((_let_41 (= 24 rf!7))) (let ((_let_42 (<= t!24 t!7))) (let ((_let_43 (= 28 rf!7))) (let ((_let_44 (<= t!28 t!7))) (let ((_let_45 (= 32 rf!7))) (let ((_let_46 (<= t!32 t!7))) (let ((_let_47 (= 36 rf!7))) (let ((_let_48 (<= t!36 t!7))) (let ((_let_49 (= 0 rf!11))) (let ((_let_50 (<= t!0 t!11))) (let ((_let_51 (= 8 rf!11))) (let ((_let_52 (<= t!8 t!11))) (let ((_let_53 (= 12 rf!11))) (let ((_let_54 (<= t!12 t!11))) (let ((_let_55 (= 16 rf!11))) (let ((_let_56 (<= t!16 t!11))) (let ((_let_57 (= 20 rf!11))) (let ((_let_58 (<= t!20 t!11))) (let ((_let_59 (= 24 rf!11))) (let ((_let_60 (<= t!24 t!11))) (let ((_let_61 (= 28 rf!11))) (let ((_let_62 (<= t!28 t!11))) (let ((_let_63 (= 32 rf!11))) (let ((_let_64 (<= t!32 t!11))) (let ((_let_65 (= 36 rf!11))) (let ((_let_66 (<= t!36 t!11))) (let ((_let_67 (= 0 rf!15))) (let ((_let_68 (<= t!0 t!15))) (let ((_let_69 (= 8 rf!15))) (let ((_let_70 (<= t!8 t!15))) (let ((_let_71 (= 12 rf!15))) (let ((_let_72 (<= t!12 t!15))) (let ((_let_73 (= 16 rf!15))) (let ((_let_74 (<= t!16 t!15))) (let ((_let_75 (= 20 rf!15))) (let ((_let_76 (<= t!20 t!15))) (let ((_let_77 (= 24 rf!15))) (let ((_let_78 (<= t!24 t!15))) (let ((_let_79 (= 28 rf!15))) (let ((_let_80 (<= t!28 t!15))) (let ((_let_81 (= 32 rf!15))) (let ((_let_82 (<= t!32 t!15))) (let ((_let_83 (= 36 rf!15))) (let ((_let_84 (<= t!36 t!15))) (let ((_let_85 (= 0 rf!19))) (let ((_let_86 (<= t!0 t!19))) (let ((_let_87 (= 8 rf!19))) (let ((_let_88 (<= t!8 t!19))) (let ((_let_89 (= 12 rf!19))) (let ((_let_90 (<= t!12 t!19))) (let ((_let_91 (= 16 rf!19))) (let ((_let_92 (<= t!16 t!19))) (let ((_let_93 (= 20 rf!19))) (let ((_let_94 (<= t!20 t!19))) (let ((_let_95 (= 24 rf!19))) (let ((_let_96 (<= t!24 t!19))) (let ((_let_97 (= 28 rf!19))) (let ((_let_98 (<= t!28 t!19))) (let ((_let_99 (= 32 rf!19))) (let ((_let_100 (<= t!32 t!19))) (let ((_let_101 (= 36 rf!19))) (let ((_let_102 (<= t!36 t!19))) (let ((_let_103 (= 0 rf!23))) (let ((_let_104 (<= t!0 t!23))) (let ((_let_105 (= 8 rf!23))) (let ((_let_106 (<= t!8 t!23))) (let ((_let_107 (= 12 rf!23))) (let ((_let_108 (<= t!12 t!23))) (let ((_let_109 (= 16 rf!23))) (let ((_let_110 (<= t!16 t!23))) (let ((_let_111 (= 20 rf!23))) (let ((_let_112 (<= t!20 t!23))) (let ((_let_113 (= 24 rf!23))) (let ((_let_114 (<= t!24 t!23))) (let ((_let_115 (= 28 rf!23))) (let ((_let_116 (<= t!28 t!23))) (let ((_let_117 (= 32 rf!23))) (let ((_let_118 (<= t!32 t!23))) (let ((_let_119 (= 36 rf!23))) (let ((_let_120 (<= t!36 t!23))) (let ((_let_121 (= 0 rf!27))) (let ((_let_122 (<= t!0 t!27))) (let ((_let_123 (= 8 rf!27))) (let ((_let_124 (<= t!8 t!27))) (let ((_let_125 (= 12 rf!27))) (let ((_let_126 (<= t!12 t!27))) (let ((_let_127 (= 16 rf!27))) (let ((_let_128 (<= t!16 t!27))) (let ((_let_129 (= 20 rf!27))) (let ((_let_130 (<= t!20 t!27))) (let ((_let_131 (= 24 rf!27))) (let ((_let_132 (<= t!24 t!27))) (let ((_let_133 (= 28 rf!27))) (let ((_let_134 (<= t!28 t!27))) (let ((_let_135 (= 32 rf!27))) (let ((_let_136 (<= t!32 t!27))) (let ((_let_137 (= 36 rf!27))) (let ((_let_138 (<= t!36 t!27))) (let ((_let_139 (= 0 rf!31))) (let ((_let_140 (<= t!0 t!31))) (let ((_let_141 (= 8 rf!31))) (let ((_let_142 (<= t!8 t!31))) (let ((_let_143 (= 12 rf!31))) (let ((_let_144 (<= t!12 t!31))) (let ((_let_145 (= 16 rf!31))) (let ((_let_146 (<= t!16 t!31))) (let ((_let_147 (= 20 rf!31))) (let ((_let_148 (<= t!20 t!31))) (let ((_let_149 (= 24 rf!31))) (let ((_let_150 (<= t!24 t!31))) (let ((_let_151 (= 28 rf!31))) (let ((_let_152 (<= t!28 t!31))) (let ((_let_153 (= 32 rf!31))) (let ((_let_154 (<= t!32 t!31))) (let ((_let_155 (= 36 rf!31))) (let ((_let_156 (<= t!36 t!31))) (let ((_let_157 (= 0 rf!35))) (let ((_let_158 (<= t!0 t!35))) (let ((_let_159 (= 8 rf!35))) (let ((_let_160 (<= t!8 t!35))) (let ((_let_161 (= 12 rf!35))) (let ((_let_162 (<= t!12 t!35))) (let ((_let_163 (= 16 rf!35))) (let ((_let_164 (<= t!16 t!35))) (let ((_let_165 (= 20 rf!35))) (let ((_let_166 (<= t!20 t!35))) (let ((_let_167 (= 24 rf!35))) (let ((_let_168 (<= t!24 t!35))) (let ((_let_169 (= 28 rf!35))) (let ((_let_170 (<= t!28 t!35))) (let ((_let_171 (= 32 rf!35))) (let ((_let_172 (<= t!32 t!35))) (let ((_let_173 (= 36 rf!35))) (let ((_let_174 (<= t!36 t!35))) (and (and (and (and (and (and (and (and (and (and (and (and (and (and (and (and (and (and (and (and (and (and (and (and (and (and (and (and (and (and (and (and (and (and (and (and (and (and (and (and (and (and (and (and (and (and (and (and (and (and (and (and (and (and (and (and (and (and (and (and (and (and (and (and (and (and (and (and (and (and (and (and (and (and (and (and (and (and (and (and (and (and (and (and (and (and (and (and (and (and (and (and (and (and (and (and (and (and (and (and (and (and (and (and (and (and (and (and (and (and (and (and (and (and (and (and (and (and (and (and (and (and (and (and (and (and (and (and (and (and (and (and (and (and (and (and (and (and (and (and (and (and (and (and (and (and (and (and (and (and (and (and (and (and (and (and (and (and (and (and (and (and (and (and (and (and (and (and (and (and (and (and (and (and (and (and true (=> _let_0 (and (and (and _let_1 _let_2) (= 0 v!39)) (= s!38 t!1)))) (=> (and _let_2 true) (<= t!1 s!38))) (=> _let_3 (and (and (and _let_1 _let_4) (= v!4 v!39)) (= s!38 t!4)))) (=> (and _let_4 true) (<= t!4 s!38))) (=> true (or _let_3 (or _let_0 false)))) (=> _let_5 (and (and (and _let_1 _let_6) (= 0 v!4)) (= s!3 t!0)))) (=> (and _let_6 true) (<= t!0 s!3))) (=> _let_7 (and (and (and _let_1 _let_8) (= _let_9 v!4)) (= s!3 t!8)))) (=> (and _let_8 true) (<= t!8 s!3))) (=> _let_10 (and (and (and _let_1 _let_11) (= _let_12 v!4)) (= s!3 t!12)))) (=> (and _let_11 true) (<= t!12 s!3))) (=> _let_13 (and (and (and _let_1 _let_14) (= _let_15 v!4)) (= s!3 t!16)))) (=> (and _let_14 true) (<= t!16 s!3))) (=> _let_16 (and (and (and _let_1 _let_17) (= _let_18 v!4)) (= s!3 t!20)))) (=> (and _let_17 true) (<= t!20 s!3))) (=> _let_19 (and (and (and _let_1 _let_20) (= _let_21 v!4)) (= s!3 t!24)))) (=> (and _let_20 true) (<= t!24 s!3))) (=> _let_22 (and (and (and _let_1 _let_23) (= _let_24 v!4)) (= s!3 t!28)))) (=> (and _let_23 true) (<= t!28 s!3))) (=> _let_25 (and (and (and _let_1 _let_26) (= _let_27 v!4)) (= s!3 t!32)))) (=> (and _let_26 true) (<= t!32 s!3))) (=> _let_28 (and (and (and _let_1 _let_29) (= _let_30 v!4)) (= s!3 t!36)))) (=> (and _let_29 true) (<= t!36 s!3))) (=> true (or _let_28 (or _let_25 (or _let_22 (or _let_19 (or _let_16 (or _let_13 (or _let_10 (or _let_7 (or _let_5 false))))))))))) (=> _let_31 (and (and (and _let_1 _let_32) (= 0 v!8)) (= s!7 t!0)))) (=> (and _let_32 true) (<= t!0 s!7))) (=> _let_33 (and (and (and _let_1 _let_34) (= _let_9 v!8)) (= s!7 t!8)))) (=> (and _let_34 true) (<= t!8 s!7))) (=> _let_35 (and (and (and _let_1 _let_36) (= _let_12 v!8)) (= s!7 t!12)))) (=> (and _let_36 true) (<= t!12 s!7))) (=> _let_37 (and (and (and _let_1 _let_38) (= _let_15 v!8)) (= s!7 t!16)))) (=> (and _let_38 true) (<= t!16 s!7))) (=> _let_39 (and (and (and _let_1 _let_40) (= _let_18 v!8)) (= s!7 t!20)))) (=> (and _let_40 true) (<= t!20 s!7))) (=> _let_41 (and (and (and _let_1 _let_42) (= _let_21 v!8)) (= s!7 t!24)))) (=> (and _let_42 true) (<= t!24 s!7))) (=> _let_43 (and (and (and _let_1 _let_44) (= _let_24 v!8)) (= s!7 t!28)))) (=> (and _let_44 true) (<= t!28 s!7))) (=> _let_45 (and (and (and _let_1 _let_46) (= _let_27 v!8)) (= s!7 t!32)))) (=> (and _let_46 true) (<= t!32 s!7))) (=> _let_47 (and (and (and _let_1 _let_48) (= _let_30 v!8)) (= s!7 t!36)))) (=> (and _let_48 true) (<= t!36 s!7))) (=> true (or _let_47 (or _let_45 (or _let_43 (or _let_41 (or _let_39 (or _let_37 (or _let_35 (or _let_33 (or _let_31 false))))))))))) (=> _let_49 (and (and (and _let_1 _let_50) (= 0 v!12)) (= s!11 t!0)))) (=> (and _let_50 true) (<= t!0 s!11))) (=> _let_51 (and (and (and _let_1 _let_52) (= _let_9 v!12)) (= s!11 t!8)))) (=> (and _let_52 true) (<= t!8 s!11))) (=> _let_53 (and (and (and _let_1 _let_54) (= _let_12 v!12)) (= s!11 t!12)))) (=> (and _let_54 true) (<= t!12 s!11))) (=> _let_55 (and (and (and _let_1 _let_56) (= _let_15 v!12)) (= s!11 t!16)))) (=> (and _let_56 true) (<= t!16 s!11))) (=> _let_57 (and (and (and _let_1 _let_58) (= _let_18 v!12)) (= s!11 t!20)))) (=> (and _let_58 true) (<= t!20 s!11))) (=> _let_59 (and (and (and _let_1 _let_60) (= _let_21 v!12)) (= s!11 t!24)))) (=> (and _let_60 true) (<= t!24 s!11))) (=> _let_61 (and (and (and _let_1 _let_62) (= _let_24 v!12)) (= s!11 t!28)))) (=> (and _let_62 true) (<= t!28 s!11))) (=> _let_63 (and (and (and _let_1 _let_64) (= _let_27 v!12)) (= s!11 t!32)))) (=> (and _let_64 true) (<= t!32 s!11))) (=> _let_65 (and (and (and _let_1 _let_66) (= _let_30 v!12)) (= s!11 t!36)))) (=> (and _let_66 true) (<= t!36 s!11))) (=> true (or _let_65 (or _let_63 (or _let_61 (or _let_59 (or _let_57 (or _let_55 (or _let_53 (or _let_51 (or _let_49 false))))))))))) (=> _let_67 (and (and (and _let_1 _let_68) (= 0 v!16)) (= s!15 t!0)))) (=> (and _let_68 true) (<= t!0 s!15))) (=> _let_69 (and (and (and _let_1 _let_70) (= _let_9 v!16)) (= s!15 t!8)))) (=> (and _let_70 true) (<= t!8 s!15))) (=> _let_71 (and (and (and _let_1 _let_72) (= _let_12 v!16)) (= s!15 t!12)))) (=> (and _let_72 true) (<= t!12 s!15))) (=> _let_73 (and (and (and _let_1 _let_74) (= _let_15 v!16)) (= s!15 t!16)))) (=> (and _let_74 true) (<= t!16 s!15))) (=> _let_75 (and (and (and _let_1 _let_76) (= _let_18 v!16)) (= s!15 t!20)))) (=> (and _let_76 true) (<= t!20 s!15))) (=> _let_77 (and (and (and _let_1 _let_78) (= _let_21 v!16)) (= s!15 t!24)))) (=> (and _let_78 true) (<= t!24 s!15))) (=> _let_79 (and (and (and _let_1 _let_80) (= _let_24 v!16)) (= s!15 t!28)))) (=> (and _let_80 true) (<= t!28 s!15))) (=> _let_81 (and (and (and _let_1 _let_82) (= _let_27 v!16)) (= s!15 t!32)))) (=> (and _let_82 true) (<= t!32 s!15))) (=> _let_83 (and (and (and _let_1 _let_84) (= _let_30 v!16)) (= s!15 t!36)))) (=> (and _let_84 true) (<= t!36 s!15))) (=> true (or _let_83 (or _let_81 (or _let_79 (or _let_77 (or _let_75 (or _let_73 (or _let_71 (or _let_69 (or _let_67 false))))))))))) (=> _let_85 (and (and (and _let_1 _let_86) (= 0 v!20)) (= s!19 t!0)))) (=> (and _let_86 true) (<= t!0 s!19))) (=> _let_87 (and (and (and _let_1 _let_88) (= _let_9 v!20)) (= s!19 t!8)))) (=> (and _let_88 true) (<= t!8 s!19))) (=> _let_89 (and (and (and _let_1 _let_90) (= _let_12 v!20)) (= s!19 t!12)))) (=> (and _let_90 true) (<= t!12 s!19))) (=> _let_91 (and (and (and _let_1 _let_92) (= _let_15 v!20)) (= s!19 t!16)))) (=> (and _let_92 true) (<= t!16 s!19))) (=> _let_93 (and (and (and _let_1 _let_94) (= _let_18 v!20)) (= s!19 t!20)))) (=> (and _let_94 true) (<= t!20 s!19))) (=> _let_95 (and (and (and _let_1 _let_96) (= _let_21 v!20)) (= s!19 t!24)))) (=> (and _let_96 true) (<= t!24 s!19))) (=> _let_97 (and (and (and _let_1 _let_98) (= _let_24 v!20)) (= s!19 t!28)))) (=> (and _let_98 true) (<= t!28 s!19))) (=> _let_99 (and (and (and _let_1 _let_100) (= _let_27 v!20)) (= s!19 t!32)))) (=> (and _let_100 true) (<= t!32 s!19))) (=> _let_101 (and (and (and _let_1 _let_102) (= _let_30 v!20)) (= s!19 t!36)))) (=> (and _let_102 true) (<= t!36 s!19))) (=> true (or _let_101 (or _let_99 (or _let_97 (or _let_95 (or _let_93 (or _let_91 (or _let_89 (or _let_87 (or _let_85 false))))))))))) (=> _let_103 (and (and (and _let_1 _let_104) (= 0 v!24)) (= s!23 t!0)))) (=> (and _let_104 true) (<= t!0 s!23))) (=> _let_105 (and (and (and _let_1 _let_106) (= _let_9 v!24)) (= s!23 t!8)))) (=> (and _let_106 true) (<= t!8 s!23))) (=> _let_107 (and (and (and _let_1 _let_108) (= _let_12 v!24)) (= s!23 t!12)))) (=> (and _let_108 true) (<= t!12 s!23))) (=> _let_109 (and (and (and _let_1 _let_110) (= _let_15 v!24)) (= s!23 t!16)))) (=> (and _let_110 true) (<= t!16 s!23))) (=> _let_111 (and (and (and _let_1 _let_112) (= _let_18 v!24)) (= s!23 t!20)))) (=> (and _let_112 true) (<= t!20 s!23))) (=> _let_113 (and (and (and _let_1 _let_114) (= _let_21 v!24)) (= s!23 t!24)))) (=> (and _let_114 true) (<= t!24 s!23))) (=> _let_115 (and (and (and _let_1 _let_116) (= _let_24 v!24)) (= s!23 t!28)))) (=> (and _let_116 true) (<= t!28 s!23))) (=> _let_117 (and (and (and _let_1 _let_118) (= _let_27 v!24)) (= s!23 t!32)))) (=> (and _let_118 true) (<= t!32 s!23))) (=> _let_119 (and (and (and _let_1 _let_120) (= _let_30 v!24)) (= s!23 t!36)))) (=> (and _let_120 true) (<= t!36 s!23))) (=> true (or _let_119 (or _let_117 (or _let_115 (or _let_113 (or _let_111 (or _let_109 (or _let_107 (or _let_105 (or _let_103 false))))))))))) (=> _let_121 (and (and (and _let_1 _let_122) (= 0 v!28)) (= s!27 t!0)))) (=> (and _let_122 true) (<= t!0 s!27))) (=> _let_123 (and (and (and _let_1 _let_124) (= _let_9 v!28)) (= s!27 t!8)))) (=> (and _let_124 true) (<= t!8 s!27))) (=> _let_125 (and (and (and _let_1 _let_126) (= _let_12 v!28)) (= s!27 t!12)))) (=> (and _let_126 true) (<= t!12 s!27))) (=> _let_127 (and (and (and _let_1 _let_128) (= _let_15 v!28)) (= s!27 t!16)))) (=> (and _let_128 true) (<= t!16 s!27))) (=> _let_129 (and (and (and _let_1 _let_130) (= _let_18 v!28)) (= s!27 t!20)))) (=> (and _let_130 true) (<= t!20 s!27))) (=> _let_131 (and (and (and _let_1 _let_132) (= _let_21 v!28)) (= s!27 t!24)))) (=> (and _let_132 true) (<= t!24 s!27))) (=> _let_133 (and (and (and _let_1 _let_134) (= _let_24 v!28)) (= s!27 t!28)))) (=> (and _let_134 true) (<= t!28 s!27))) (=> _let_135 (and (and (and _let_1 _let_136) (= _let_27 v!28)) (= s!27 t!32)))) (=> (and _let_136 true) (<= t!32 s!27))) (=> _let_137 (and (and (and _let_1 _let_138) (= _let_30 v!28)) (= s!27 t!36)))) (=> (and _let_138 true) (<= t!36 s!27))) (=> true (or _let_137 (or _let_135 (or _let_133 (or _let_131 (or _let_129 (or _let_127 (or _let_125 (or _let_123 (or _let_121 false))))))))))) (=> _let_139 (and (and (and _let_1 _let_140) (= 0 v!32)) (= s!31 t!0)))) (=> (and _let_140 true) (<= t!0 s!31))) (=> _let_141 (and (and (and _let_1 _let_142) (= _let_9 v!32)) (= s!31 t!8)))) (=> (and _let_142 true) (<= t!8 s!31))) (=> _let_143 (and (and (and _let_1 _let_144) (= _let_12 v!32)) (= s!31 t!12)))) (=> (and _let_144 true) (<= t!12 s!31))) (=> _let_145 (and (and (and _let_1 _let_146) (= _let_15 v!32)) (= s!31 t!16)))) (=> (and _let_146 true) (<= t!16 s!31))) (=> _let_147 (and (and (and _let_1 _let_148) (= _let_18 v!32)) (= s!31 t!20)))) (=> (and _let_148 true) (<= t!20 s!31))) (=> _let_149 (and (and (and _let_1 _let_150) (= _let_21 v!32)) (= s!31 t!24)))) (=> (and _let_150 true) (<= t!24 s!31))) (=> _let_151 (and (and (and _let_1 _let_152) (= _let_24 v!32)) (= s!31 t!28)))) (=> (and _let_152 true) (<= t!28 s!31))) (=> _let_153 (and (and (and _let_1 _let_154) (= _let_27 v!32)) (= s!31 t!32)))) (=> (and _let_154 true) (<= t!32 s!31))) (=> _let_155 (and (and (and _let_1 _let_156) (= _let_30 v!32)) (= s!31 t!36)))) (=> (and _let_156 true) (<= t!36 s!31))) (=> true (or _let_155 (or _let_153 (or _let_151 (or _let_149 (or _let_147 (or _let_145 (or _let_143 (or _let_141 (or _let_139 false))))))))))) (=> _let_157 (and (and (and _let_1 _let_158) (= 0 v!36)) (= s!35 t!0)))) (=> (and _let_158 true) (<= t!0 s!35))) (=> _let_159 (and (and (and _let_1 _let_160) (= _let_9 v!36)) (= s!35 t!8)))) (=> (and _let_160 true) (<= t!8 s!35))) (=> _let_161 (and (and (and _let_1 _let_162) (= _let_12 v!36)) (= s!35 t!12)))) (=> (and _let_162 true) (<= t!12 s!35))) (=> _let_163 (and (and (and _let_1 _let_164) (= _let_15 v!36)) (= s!35 t!16)))) (=> (and _let_164 true) (<= t!16 s!35))) (=> _let_165 (and (and (and _let_1 _let_166) (= _let_18 v!36)) (= s!35 t!20)))) (=> (and _let_166 true) (<= t!20 s!35))) (=> _let_167 (and (and (and _let_1 _let_168) (= _let_21 v!36)) (= s!35 t!24)))) (=> (and _let_168 true) (<= t!24 s!35))) (=> _let_169 (and (and (and _let_1 _let_170) (= _let_24 v!36)) (= s!35 t!28)))) (=> (and _let_170 true) (<= t!28 s!35))) (=> _let_171 (and (and (and _let_1 _let_172) (= _let_27 v!36)) (= s!35 t!32)))) (=> (and _let_172 true) (<= t!32 s!35))) (=> _let_173 (and (and (and _let_1 _let_174) (= _let_30 v!36)) (= s!35 t!36)))) (=> (and _let_174 true) (<= t!36 s!35))) (=> true (or _let_173 (or _let_171 (or _let_169 (or _let_167 (or _let_165 (or _let_163 (or _let_161 (or _let_159 (or _let_157 false)))))))))))))))))))))))))))))))))))))))))))))))))))))))))))))))))))))))))))))))))))))))))))))))))))))))))))))))))))))))))))))))))))))))))))))))))))))))))))))))))))))))))))))))))))))))))))
(assert (and (and true (distinct t!1 t!4)) (distinct t!0 t!8 t!12 t!16 t!20 t!24 t!28 t!32 t!36)))
(check-sat)
